0 0 0 1 0 1 0 1 0 1 1 0 
0 66 17 67 75 65 50 78 70 72 43 43 
66 0 79 19 67 50 18 34 77 69 38 33 
17 79 0 73 49 36 49 24 77 73 18 74 
67 19 73 0 41 58 23 70 31 62 80 52 
75 67 49 41 0 34 49 26 38 40 49 68 
65 50 36 58 34 0 52 29 77 74 17 52 
50 18 49 23 49 52 0 45 25 54 22 57 
78 34 24 70 26 29 45 0 36 28 54 71 
70 77 77 31 38 77 25 36 0 72 52 68 
72 69 73 62 40 74 54 28 72 0 34 53 
43 38 18 80 49 17 22 54 52 34 0 56 
43 33 74 52 68 52 57 71 68 53 56 0 
2 50
1B 3B 8P 10P 5B 6P 11P 7B 9B 4P 2B 12B = 333